p tw 160 32801 2 
1 82 
1 83 
1 85 
1 88 
1 89 
1 91 
1 93 
1 95 
1 98 
1 99 
1 101 
1 103 
1 105 
1 108 
1 109 
1 111 
1 113 
1 115 
1 117 
1 119 
1 121 
1 123 
1 126 
1 127 
1 129 
1 131 
1 134 
1 135 
1 138 
1 139 
1 141 
1 143 
1 145 
1 147 
1 150 
1 151 
1 153 
1 156 
1 157 
1 160 
2 81 
2 84 
2 86 
2 87 
2 90 
2 92 
2 94 
2 96 
2 97 
2 100 
2 102 
2 104 
2 106 
2 107 
2 110 
2 112 
2 114 
2 116 
2 118 
2 120 
2 122 
2 124 
2 125 
2 128 
2 130 
2 132 
2 133 
2 136 
2 137 
2 140 
2 142 
2 144 
2 146 
2 148 
2 149 
2 152 
2 154 
2 155 
2 158 
2 159 
3 4 
3 82 
3 84 
3 86 
3 88 
3 90 
3 92 
3 94 
3 95 
3 98 
3 99 
3 102 
3 104 
3 105 
3 108 
3 110 
3 111 
3 114 
3 116 
3 117 
3 120 
3 121 
3 123 
3 126 
3 127 
3 130 
3 132 
3 134 
3 136 
3 138 
3 140 
3 142 
3 143 
3 146 
3 148 
3 150 
3 151 
3 154 
3 156 
3 158 
3 160 
4 81 
4 83 
4 85 
4 87 
4 89 
4 91 
4 93 
4 96 
4 97 
4 100 
4 101 
4 103 
4 106 
4 107 
4 109 
4 112 
4 113 
4 115 
4 118 
4 119 
4 122 
4 124 
4 125 
4 128 
4 129 
4 131 
4 133 
4 135 
4 137 
4 139 
4 141 
4 144 
4 145 
4 147 
4 149 
4 152 
4 153 
4 155 
4 157 
4 159 
5 6 
5 82 
5 84 
5 85 
5 88 
5 89 
5 92 
5 93 
5 96 
5 98 
5 100 
5 101 
5 104 
5 106 
5 108 
5 110 
5 112 
5 113 
5 115 
5 118 
5 120 
5 122 
5 124 
5 126 
5 128 
5 129 
5 132 
5 134 
5 135 
5 138 
5 139 
5 142 
5 144 
5 146 
5 148 
5 150 
5 152 
5 153 
5 156 
5 158 
5 160 
6 81 
6 83 
6 86 
6 87 
6 90 
6 91 
6 94 
6 95 
6 97 
6 99 
6 102 
6 103 
6 105 
6 107 
6 109 
6 111 
6 114 
6 116 
6 117 
6 119 
6 121 
6 123 
6 125 
6 127 
6 130 
6 131 
6 133 
6 136 
6 137 
6 140 
6 141 
6 143 
6 145 
6 147 
6 149 
6 151 
6 154 
6 155 
6 157 
6 159 
7 8 
7 82 
7 83 
7 86 
7 87 
7 90 
7 91 
7 93 
7 95 
7 98 
7 99 
7 101 
7 103 
7 105 
7 108 
7 110 
7 111 
7 113 
7 115 
7 118 
7 120 
7 122 
7 124 
7 126 
7 127 
7 130 
7 131 
7 134 
7 136 
7 137 
7 139 
7 141 
7 144 
7 146 
7 148 
7 149 
7 152 
7 154 
7 155 
7 158 
7 159 
8 81 
8 84 
8 85 
8 88 
8 89 
8 92 
8 94 
8 96 
8 97 
8 100 
8 102 
8 104 
8 106 
8 107 
8 109 
8 112 
8 114 
8 116 
8 117 
8 119 
8 121 
8 123 
8 125 
8 128 
8 129 
8 132 
8 133 
8 135 
8 138 
8 140 
8 142 
8 143 
8 145 
8 147 
8 150 
8 151 
8 153 
8 156 
8 157 
8 160 
9 10 
9 82 
9 84 
9 86 
9 87 
9 89 
9 92 
9 94 
9 96 
9 98 
9 100 
9 102 
9 104 
9 105 
9 107 
9 109 
9 111 
9 113 
9 116 
9 118 
9 119 
9 122 
9 123 
9 126 
9 127 
9 130 
9 132 
9 134 
9 135 
9 138 
9 139 
9 141 
9 143 
9 145 
9 148 
9 149 
9 152 
9 153 
9 155 
9 157 
9 159 
10 81 
10 83 
10 85 
10 88 
10 90 
10 91 
10 93 
10 95 
10 97 
10 99 
10 101 
10 103 
10 106 
10 108 
10 110 
10 112 
10 114 
10 115 
10 117 
10 120 
10 121 
10 124 
10 125 
10 128 
10 129 
10 131 
10 133 
10 136 
10 137 
10 140 
10 142 
10 144 
10 146 
10 147 
10 150 
10 151 
10 154 
10 156 
10 158 
10 160 
11 12 
11 81 
11 84 
11 85 
11 88 
11 89 
11 92 
11 93 
11 95 
11 98 
11 99 
11 102 
11 103 
11 106 
11 107 
11 110 
11 111 
11 113 
11 116 
11 118 
11 119 
11 121 
11 123 
11 126 
11 128 
11 130 
11 131 
11 133 
11 135 
11 138 
11 140 
11 141 
11 144 
11 146 
11 147 
11 150 
11 152 
11 154 
11 155 
11 158 
11 159 
12 82 
12 83 
12 86 
12 87 
12 90 
12 91 
12 94 
12 96 
12 97 
12 100 
12 101 
12 104 
12 105 
12 108 
12 109 
12 112 
12 114 
12 115 
12 117 
12 120 
12 122 
12 124 
12 125 
12 127 
12 129 
12 132 
12 134 
12 136 
12 137 
12 139 
12 142 
12 143 
12 145 
12 148 
12 149 
12 151 
12 153 
12 156 
12 157 
12 160 
13 14 
13 82 
13 83 
13 86 
13 88 
13 90 
13 91 
13 94 
13 96 
13 98 
13 100 
13 102 
13 103 
13 106 
13 108 
13 109 
13 112 
13 114 
13 116 
13 118 
13 119 
13 122 
13 124 
13 126 
13 128 
13 130 
13 131 
13 134 
13 136 
13 138 
13 140 
13 141 
13 144 
13 145 
13 147 
13 150 
13 152 
13 154 
13 156 
13 157 
13 160 
14 81 
14 84 
14 85 
14 87 
14 89 
14 92 
14 93 
14 95 
14 97 
14 99 
14 101 
14 104 
14 105 
14 107 
14 110 
14 111 
14 113 
14 115 
14 117 
14 120 
14 121 
14 123 
14 125 
14 127 
14 129 
14 132 
14 133 
14 135 
14 137 
14 139 
14 142 
14 143 
14 146 
14 148 
14 149 
14 151 
14 153 
14 155 
14 158 
14 159 
15 16 
15 81 
15 83 
15 86 
15 88 
15 90 
15 91 
15 94 
15 96 
15 97 
15 99 
15 101 
15 104 
15 106 
15 107 
15 109 
15 111 
15 113 
15 115 
15 118 
15 120 
15 121 
15 123 
15 126 
15 128 
15 129 
15 132 
15 134 
15 136 
15 138 
15 140 
15 141 
15 143 
15 146 
15 147 
15 149 
15 152 
15 153 
15 155 
15 158 
15 160 
16 82 
16 84 
16 85 
16 87 
16 89 
16 92 
16 93 
16 95 
16 98 
16 100 
16 102 
16 103 
16 105 
16 108 
16 110 
16 112 
16 114 
16 116 
16 117 
16 119 
16 122 
16 124 
16 125 
16 127 
16 130 
16 131 
16 133 
16 135 
16 137 
16 139 
16 142 
16 144 
16 145 
16 148 
16 150 
16 151 
16 154 
16 156 
16 157 
16 159 
17 18 
17 81 
17 84 
17 86 
17 88 
17 90 
17 91 
17 93 
17 95 
17 98 
17 100 
17 101 
17 104 
17 106 
17 108 
17 110 
17 112 
17 113 
17 116 
17 117 
17 120 
17 121 
17 124 
17 125 
17 127 
17 130 
17 132 
17 134 
17 135 
17 137 
17 140 
17 141 
17 143 
17 145 
17 147 
17 150 
17 152 
17 153 
17 155 
17 157 
17 159 
18 82 
18 83 
18 85 
18 87 
18 89 
18 92 
18 94 
18 96 
18 97 
18 99 
18 102 
18 103 
18 105 
18 107 
18 109 
18 111 
18 114 
18 115 
18 118 
18 119 
18 122 
18 123 
18 126 
18 128 
18 129 
18 131 
18 133 
18 136 
18 138 
18 139 
18 142 
18 144 
18 146 
18 148 
18 149 
18 151 
18 154 
18 156 
18 158 
18 160 
19 20 
19 82 
19 83 
19 85 
19 88 
19 90 
19 92 
19 93 
19 96 
19 97 
19 99 
19 102 
19 104 
19 106 
19 108 
19 110 
19 112 
19 113 
19 116 
19 117 
19 120 
19 122 
19 123 
19 126 
19 127 
19 129 
19 131 
19 133 
19 136 
19 138 
19 139 
19 142 
19 143 
19 145 
19 147 
19 149 
19 152 
19 154 
19 155 
19 157 
19 159 
20 81 
20 84 
20 86 
20 87 
20 89 
20 91 
20 94 
20 95 
20 98 
20 100 
20 101 
20 103 
20 105 
20 107 
20 109 
20 111 
20 114 
20 115 
20 118 
20 119 
20 121 
20 124 
20 125 
20 128 
20 130 
20 132 
20 134 
20 135 
20 137 
20 140 
20 141 
20 144 
20 146 
20 148 
20 150 
20 151 
20 153 
20 156 
20 158 
20 160 
21 22 
21 82 
21 83 
21 86 
21 88 
21 90 
21 91 
21 93 
21 96 
21 97 
21 99 
21 102 
21 104 
21 106 
21 107 
21 110 
21 111 
21 114 
21 116 
21 118 
21 119 
21 121 
21 124 
21 126 
21 127 
21 129 
21 132 
21 133 
21 135 
21 137 
21 139 
21 141 
21 144 
21 145 
21 148 
21 150 
21 151 
21 153 
21 156 
21 158 
21 159 
22 81 
22 84 
22 85 
22 87 
22 89 
22 92 
22 94 
22 95 
22 98 
22 100 
22 101 
22 103 
22 105 
22 108 
22 109 
22 112 
22 113 
22 115 
22 117 
22 120 
22 122 
22 123 
22 125 
22 128 
22 130 
22 131 
22 134 
22 136 
22 138 
22 140 
22 142 
22 143 
22 146 
22 147 
22 149 
22 152 
22 154 
22 155 
22 157 
22 160 
23 24 
23 81 
23 84 
23 85 
23 88 
23 89 
23 91 
23 94 
23 96 
23 98 
23 99 
23 102 
23 104 
23 105 
23 108 
23 110 
23 111 
23 114 
23 115 
23 118 
23 120 
23 122 
23 123 
23 125 
23 128 
23 129 
23 132 
23 134 
23 136 
23 137 
23 139 
23 141 
23 144 
23 145 
23 147 
23 150 
23 151 
23 154 
23 155 
23 157 
23 159 
24 82 
24 83 
24 86 
24 87 
24 90 
24 92 
24 93 
24 95 
24 97 
24 100 
24 101 
24 103 
24 106 
24 107 
24 109 
24 112 
24 113 
24 116 
24 117 
24 119 
24 121 
24 124 
24 126 
24 127 
24 130 
24 131 
24 133 
24 135 
24 138 
24 140 
24 142 
24 143 
24 146 
24 148 
24 149 
24 152 
24 153 
24 156 
24 158 
24 160 
25 26 
25 82 
25 84 
25 85 
25 87 
25 90 
25 91 
25 94 
25 95 
25 97 
25 100 
25 102 
25 104 
25 106 
25 107 
25 110 
25 112 
25 113 
25 115 
25 118 
25 119 
25 121 
25 123 
25 126 
25 127 
25 130 
25 131 
25 134 
25 136 
25 137 
25 139 
25 142 
25 144 
25 146 
25 147 
25 150 
25 151 
25 153 
25 155 
25 157 
25 160 
26 81 
26 83 
26 86 
26 88 
26 89 
26 92 
26 93 
26 96 
26 98 
26 99 
26 101 
26 103 
26 105 
26 108 
26 109 
26 111 
26 114 
26 116 
26 117 
26 120 
26 122 
26 124 
26 125 
26 128 
26 129 
26 132 
26 133 
26 135 
26 138 
26 140 
26 141 
26 143 
26 145 
26 148 
26 149 
26 152 
26 154 
26 156 
26 158 
26 159 
27 28 
27 82 
27 84 
27 86 
27 87 
27 89 
27 91 
27 94 
27 95 
27 98 
27 99 
27 102 
27 104 
27 106 
27 107 
27 110 
27 112 
27 113 
27 115 
27 118 
27 120 
27 122 
27 124 
27 125 
27 127 
27 129 
27 131 
27 133 
27 135 
27 138 
27 140 
27 141 
27 143 
27 145 
27 147 
27 149 
27 151 
27 154 
27 156 
27 158 
27 160 
28 81 
28 83 
28 85 
28 88 
28 90 
28 92 
28 93 
28 96 
28 97 
28 100 
28 101 
28 103 
28 105 
28 108 
28 109 
28 111 
28 114 
28 116 
28 117 
28 119 
28 121 
28 123 
28 126 
28 128 
28 130 
28 132 
28 134 
28 136 
28 137 
28 139 
28 142 
28 144 
28 146 
28 148 
28 150 
28 152 
28 153 
28 155 
28 157 
28 159 
29 30 
29 81 
29 83 
29 85 
29 87 
29 90 
29 92 
29 94 
29 96 
29 97 
29 99 
29 101 
29 104 
29 105 
29 108 
29 110 
29 112 
29 113 
29 116 
29 118 
29 119 
29 121 
29 124 
29 125 
29 128 
29 130 
29 131 
29 134 
29 135 
29 138 
29 139 
29 141 
29 143 
29 145 
29 148 
29 150 
29 151 
29 154 
29 155 
29 158 
29 160 
30 82 
30 84 
30 86 
30 88 
30 89 
30 91 
30 93 
30 95 
30 98 
30 100 
30 102 
30 103 
30 106 
30 107 
30 109 
30 111 
30 114 
30 115 
30 117 
30 120 
30 122 
30 123 
30 126 
30 127 
30 129 
30 132 
30 133 
30 136 
30 137 
30 140 
30 142 
30 144 
30 146 
30 147 
30 149 
30 152 
30 153 
30 156 
30 157 
30 159 
31 32 
31 82 
31 83 
31 86 
31 88 
31 89 
31 92 
31 93 
31 95 
31 98 
31 99 
31 101 
31 104 
31 106 
31 107 
31 109 
31 112 
31 114 
31 116 
31 118 
31 120 
31 122 
31 123 
31 125 
31 128 
31 130 
31 131 
31 133 
31 136 
31 137 
31 139 
31 141 
31 143 
31 146 
31 148 
31 150 
31 151 
31 153 
31 155 
31 157 
31 160 
32 81 
32 84 
32 85 
32 87 
32 90 
32 91 
32 94 
32 96 
32 97 
32 100 
32 102 
32 103 
32 105 
32 108 
32 110 
32 111 
32 113 
32 115 
32 117 
32 119 
32 121 
32 124 
32 126 
32 127 
32 129 
32 132 
32 134 
32 135 
32 138 
32 140 
32 142 
32 144 
32 145 
32 147 
32 149 
32 152 
32 154 
32 156 
32 158 
32 159 
33 34 
33 82 
33 84 
33 85 
33 88 
33 90 
33 91 
33 93 
33 96 
33 97 
33 100 
33 101 
33 103 
33 106 
33 108 
33 110 
33 111 
33 114 
33 115 
33 118 
33 119 
33 122 
33 123 
33 125 
33 127 
33 130 
33 132 
33 133 
33 135 
33 138 
33 140 
33 141 
33 143 
33 146 
33 148 
33 149 
33 151 
33 154 
33 155 
33 157 
33 160 
34 81 
34 83 
34 86 
34 87 
34 89 
34 92 
34 94 
34 95 
34 98 
34 99 
34 102 
34 104 
34 105 
34 107 
34 109 
34 112 
34 113 
34 116 
34 117 
34 120 
34 121 
34 124 
34 126 
34 128 
34 129 
34 131 
34 134 
34 136 
34 137 
34 139 
34 142 
34 144 
34 145 
34 147 
34 150 
34 152 
34 153 
34 156 
34 158 
34 159 
35 36 
35 81 
35 84 
35 86 
35 88 
35 89 
35 91 
35 93 
35 96 
35 98 
35 100 
35 101 
35 104 
35 105 
35 108 
35 109 
35 112 
35 113 
35 116 
35 118 
35 119 
35 121 
35 123 
35 126 
35 127 
35 129 
35 131 
35 133 
35 136 
35 137 
35 140 
35 142 
35 144 
35 145 
35 148 
35 149 
35 151 
35 154 
35 155 
35 158 
35 160 
36 82 
36 83 
36 85 
36 87 
36 90 
36 92 
36 94 
36 95 
36 97 
36 99 
36 102 
36 103 
36 106 
36 107 
36 110 
36 111 
36 114 
36 115 
36 117 
36 120 
36 122 
36 124 
36 125 
36 128 
36 130 
36 132 
36 134 
36 135 
36 138 
36 139 
36 141 
36 143 
36 146 
36 147 
36 150 
36 152 
36 153 
36 156 
36 157 
36 159 
37 38 
37 82 
37 83 
37 86 
37 87 
37 89 
37 92 
37 93 
37 96 
37 97 
37 100 
37 101 
37 103 
37 105 
37 107 
37 110 
37 112 
37 113 
37 116 
37 118 
37 120 
37 121 
37 123 
37 125 
37 127 
37 129 
37 132 
37 134 
37 136 
37 138 
37 140 
37 141 
37 144 
37 146 
37 147 
37 150 
37 151 
37 154 
37 156 
37 157 
37 159 
38 81 
38 84 
38 85 
38 88 
38 90 
38 91 
38 94 
38 95 
38 98 
38 99 
38 102 
38 104 
38 106 
38 108 
38 109 
38 111 
38 114 
38 115 
38 117 
38 119 
38 122 
38 124 
38 126 
38 128 
38 130 
38 131 
38 133 
38 135 
38 137 
38 139 
38 142 
38 143 
38 145 
38 148 
38 149 
38 152 
38 153 
38 155 
38 158 
38 160 
39 40 
39 82 
39 83 
39 85 
39 87 
39 89 
39 91 
39 94 
39 96 
39 98 
39 100 
39 102 
39 103 
39 106 
39 108 
39 110 
39 112 
39 114 
39 116 
39 117 
39 120 
39 121 
39 123 
39 126 
39 128 
39 129 
39 131 
39 134 
39 135 
39 137 
39 140 
39 141 
39 143 
39 146 
39 148 
39 149 
39 151 
39 153 
39 155 
39 158 
39 159 
40 81 
40 84 
40 86 
40 88 
40 90 
40 92 
40 93 
40 95 
40 97 
40 99 
40 101 
40 104 
40 105 
40 107 
40 109 
40 111 
40 113 
40 115 
40 118 
40 119 
40 122 
40 124 
40 125 
40 127 
40 130 
40 132 
40 133 
40 136 
40 138 
40 139 
40 142 
40 144 
40 145 
40 147 
40 150 
40 152 
40 154 
40 156 
40 157 
40 160 
41 42 
41 82 
41 84 
41 86 
41 88 
41 90 
41 92 
41 94 
41 95 
41 97 
41 100 
41 101 
41 104 
41 106 
41 108 
41 109 
41 111 
41 113 
41 116 
41 117 
41 119 
41 122 
41 123 
41 125 
41 128 
41 129 
41 131 
41 134 
41 135 
41 137 
41 139 
41 141 
41 144 
41 146 
41 147 
41 149 
41 151 
41 154 
41 156 
41 158 
41 159 
42 81 
42 83 
42 85 
42 87 
42 89 
42 91 
42 93 
42 96 
42 98 
42 99 
42 102 
42 103 
42 105 
42 107 
42 110 
42 112 
42 114 
42 115 
42 118 
42 120 
42 121 
42 124 
42 126 
42 127 
42 130 
42 132 
42 133 
42 136 
42 138 
42 140 
42 142 
42 143 
42 145 
42 148 
42 150 
42 152 
42 153 
42 155 
42 157 
42 160 
43 44 
43 82 
43 83 
43 85 
43 88 
43 89 
43 91 
43 94 
43 95 
43 97 
43 100 
43 101 
43 104 
43 105 
43 107 
43 110 
43 112 
43 113 
43 115 
43 117 
43 119 
43 122 
43 123 
43 126 
43 128 
43 130 
43 132 
43 133 
43 136 
43 137 
43 140 
43 141 
43 143 
43 145 
43 148 
43 150 
43 152 
43 154 
43 156 
43 158 
43 159 
44 81 
44 84 
44 86 
44 87 
44 90 
44 92 
44 93 
44 96 
44 98 
44 99 
44 102 
44 103 
44 106 
44 108 
44 109 
44 111 
44 114 
44 116 
44 118 
44 120 
44 121 
44 124 
44 125 
44 127 
44 129 
44 131 
44 134 
44 135 
44 138 
44 139 
44 142 
44 144 
44 146 
44 147 
44 149 
44 151 
44 153 
44 155 
44 157 
44 160 
45 46 
45 81 
45 84 
45 86 
45 87 
45 90 
45 91 
45 93 
45 95 
45 97 
45 100 
45 102 
45 104 
45 105 
45 108 
45 109 
45 112 
45 114 
45 115 
45 118 
45 120 
45 121 
45 123 
45 126 
45 128 
45 129 
45 131 
45 133 
45 135 
45 138 
45 139 
45 141 
45 143 
45 146 
45 148 
45 150 
45 152 
45 154 
45 156 
45 157 
45 159 
46 82 
46 83 
46 85 
46 88 
46 89 
46 92 
46 94 
46 96 
46 98 
46 99 
46 101 
46 103 
46 106 
46 107 
46 110 
46 111 
46 113 
46 116 
46 117 
46 119 
46 122 
46 124 
46 125 
46 127 
46 130 
46 132 
46 134 
46 136 
46 137 
46 140 
46 142 
46 144 
46 145 
46 147 
46 149 
46 151 
46 153 
46 155 
46 158 
46 160 
47 48 
47 81 
47 84 
47 86 
47 87 
47 89 
47 91 
47 93 
47 95 
47 97 
47 99 
47 101 
47 103 
47 106 
47 108 
47 110 
47 112 
47 114 
47 116 
47 118 
47 119 
47 122 
47 123 
47 126 
47 128 
47 130 
47 132 
47 134 
47 136 
47 138 
47 139 
47 142 
47 143 
47 145 
47 147 
47 149 
47 151 
47 153 
47 156 
47 158 
47 159 
48 82 
48 83 
48 85 
48 88 
48 90 
48 92 
48 94 
48 96 
48 98 
48 100 
48 102 
48 104 
48 105 
48 107 
48 109 
48 111 
48 113 
48 115 
48 117 
48 120 
48 121 
48 124 
48 125 
48 127 
48 129 
48 131 
48 133 
48 135 
48 137 
48 140 
48 141 
48 144 
48 146 
48 148 
48 150 
48 152 
48 154 
48 155 
48 157 
48 160 
49 50 
49 82 
49 83 
49 85 
49 87 
49 89 
49 91 
49 93 
49 95 
49 97 
49 99 
49 102 
49 104 
49 106 
49 108 
49 109 
49 111 
49 113 
49 116 
49 118 
49 120 
49 121 
49 123 
49 125 
49 128 
49 130 
49 132 
49 134 
49 135 
49 137 
49 140 
49 142 
49 144 
49 145 
49 148 
49 149 
49 152 
49 154 
49 156 
49 157 
49 160 
50 81 
50 84 
50 86 
50 88 
50 90 
50 92 
50 94 
50 96 
50 98 
50 100 
50 101 
50 103 
50 105 
50 107 
50 110 
50 112 
50 114 
50 115 
50 117 
50 119 
50 122 
50 124 
50 126 
50 127 
50 129 
50 131 
50 133 
50 136 
50 138 
50 139 
50 141 
50 143 
50 146 
50 147 
50 150 
50 151 
50 153 
50 155 
50 158 
50 159 
51 52 
51 82 
51 83 
51 86 
51 87 
51 90 
51 91 
51 93 
51 96 
51 98 
51 99 
51 102 
51 104 
51 105 
51 108 
51 109 
51 112 
51 113 
51 115 
51 117 
51 119 
51 122 
51 123 
51 125 
51 128 
51 130 
51 132 
51 133 
51 135 
51 138 
51 140 
51 142 
51 144 
51 146 
51 147 
51 150 
51 151 
51 153 
51 155 
51 158 
51 159 
52 81 
52 84 
52 85 
52 88 
52 89 
52 92 
52 94 
52 95 
52 97 
52 100 
52 101 
52 103 
52 106 
52 107 
52 110 
52 111 
52 114 
52 116 
52 118 
52 120 
52 121 
52 124 
52 126 
52 127 
52 129 
52 131 
52 134 
52 136 
52 137 
52 139 
52 141 
52 143 
52 145 
52 148 
52 149 
52 152 
52 154 
52 156 
52 157 
52 160 
53 54 
53 82 
53 84 
53 86 
53 87 
53 89 
53 91 
53 93 
53 96 
53 97 
53 99 
53 101 
53 104 
53 105 
53 107 
53 110 
53 111 
53 114 
53 116 
53 117 
53 119 
53 122 
53 124 
53 126 
53 128 
53 129 
53 131 
53 134 
53 135 
53 137 
53 140 
53 142 
53 143 
53 146 
53 147 
53 150 
53 152 
53 154 
53 155 
53 157 
53 160 
54 81 
54 83 
54 85 
54 88 
54 90 
54 92 
54 94 
54 95 
54 98 
54 100 
54 102 
54 103 
54 106 
54 108 
54 109 
54 112 
54 113 
54 115 
54 118 
54 120 
54 121 
54 123 
54 125 
54 127 
54 130 
54 132 
54 133 
54 136 
54 138 
54 139 
54 141 
54 144 
54 145 
54 148 
54 149 
54 151 
54 153 
54 156 
54 158 
54 159 
55 56 
55 82 
55 83 
55 86 
55 88 
55 90 
55 92 
55 93 
55 95 
55 98 
55 100 
55 102 
55 103 
55 105 
55 107 
55 110 
55 112 
55 114 
55 115 
55 118 
55 119 
55 121 
55 123 
55 125 
55 128 
55 129 
55 132 
55 134 
55 135 
55 137 
55 139 
55 142 
55 143 
55 145 
55 147 
55 149 
55 152 
55 154 
55 155 
55 158 
55 160 
56 81 
56 84 
56 85 
56 87 
56 89 
56 91 
56 94 
56 96 
56 97 
56 99 
56 101 
56 104 
56 106 
56 108 
56 109 
56 111 
56 113 
56 116 
56 117 
56 120 
56 122 
56 124 
56 126 
56 127 
56 130 
56 131 
56 133 
56 136 
56 138 
56 140 
56 141 
56 144 
56 146 
56 148 
56 150 
56 151 
56 153 
56 156 
56 157 
56 159 
57 58 
57 82 
57 84 
57 86 
57 88 
57 89 
57 91 
57 94 
57 95 
57 97 
57 99 
57 102 
57 103 
57 105 
57 108 
57 110 
57 112 
57 113 
57 116 
57 117 
57 119 
57 121 
57 124 
57 125 
57 128 
57 129 
57 132 
57 133 
57 136 
57 138 
57 139 
57 141 
57 144 
57 146 
57 148 
57 149 
57 152 
57 153 
57 155 
57 157 
57 160 
58 81 
58 83 
58 85 
58 87 
58 90 
58 92 
58 93 
58 96 
58 98 
58 100 
58 101 
58 104 
58 106 
58 107 
58 109 
58 111 
58 114 
58 115 
58 118 
58 120 
58 122 
58 123 
58 126 
58 127 
58 130 
58 131 
58 134 
58 135 
58 137 
58 140 
58 142 
58 143 
58 145 
58 147 
58 150 
58 151 
58 154 
58 156 
58 158 
58 159 
59 60 
59 81 
59 83 
59 86 
59 88 
59 89 
59 91 
59 94 
59 96 
59 98 
59 99 
59 101 
59 104 
59 106 
59 107 
59 110 
59 112 
59 114 
59 115 
59 117 
59 119 
59 121 
59 123 
59 125 
59 127 
59 130 
59 131 
59 134 
59 135 
59 138 
59 139 
59 142 
59 144 
59 146 
59 148 
59 149 
59 152 
59 154 
59 156 
59 157 
59 159 
60 82 
60 84 
60 85 
60 87 
60 90 
60 92 
60 93 
60 95 
60 97 
60 100 
60 102 
60 103 
60 105 
60 108 
60 109 
60 111 
60 113 
60 116 
60 118 
60 120 
60 122 
60 124 
60 126 
60 128 
60 129 
60 132 
60 133 
60 136 
60 137 
60 140 
60 141 
60 143 
60 145 
60 147 
60 150 
60 151 
60 153 
60 155 
60 158 
60 160 
61 62 
61 82 
61 84 
61 86 
61 88 
61 89 
61 91 
61 93 
61 96 
61 97 
61 100 
61 102 
61 103 
61 106 
61 107 
61 109 
61 111 
61 113 
61 115 
61 117 
61 120 
61 121 
61 124 
61 125 
61 128 
61 130 
61 131 
61 134 
61 136 
61 138 
61 139 
61 142 
61 143 
61 145 
61 148 
61 150 
61 151 
61 154 
61 155 
61 158 
61 159 
62 81 
62 83 
62 85 
62 87 
62 90 
62 92 
62 94 
62 95 
62 98 
62 99 
62 101 
62 104 
62 105 
62 108 
62 110 
62 112 
62 114 
62 116 
62 118 
62 119 
62 122 
62 123 
62 126 
62 127 
62 129 
62 132 
62 133 
62 135 
62 137 
62 140 
62 141 
62 144 
62 146 
62 147 
62 149 
62 152 
62 153 
62 156 
62 157 
62 160 
63 64 
63 82 
63 84 
63 85 
63 87 
63 90 
63 91 
63 93 
63 96 
63 98 
63 100 
63 101 
63 104 
63 105 
63 107 
63 110 
63 111 
63 114 
63 116 
63 117 
63 120 
63 121 
63 123 
63 125 
63 128 
63 130 
63 131 
63 133 
63 136 
63 138 
63 139 
63 141 
63 144 
63 145 
63 147 
63 149 
63 152 
63 153 
63 156 
63 158 
63 160 
64 81 
64 83 
64 86 
64 88 
64 89 
64 92 
64 94 
64 95 
64 97 
64 99 
64 102 
64 103 
64 106 
64 108 
64 109 
64 112 
64 113 
64 115 
64 118 
64 119 
64 122 
64 124 
64 126 
64 127 
64 129 
64 132 
64 134 
64 135 
64 137 
64 140 
64 142 
64 143 
64 146 
64 148 
64 150 
64 151 
64 154 
64 155 
64 157 
64 159 
65 66 
65 81 
65 83 
65 86 
65 88 
65 89 
65 91 
65 94 
65 96 
65 97 
65 100 
65 102 
65 103 
65 105 
65 108 
65 110 
65 111 
65 113 
65 116 
65 118 
65 120 
65 122 
65 123 
65 125 
65 127 
65 130 
65 131 
65 133 
65 135 
65 137 
65 139 
65 142 
65 143 
65 146 
65 147 
65 150 
65 152 
65 153 
65 156 
65 158 
65 160 
66 82 
66 84 
66 85 
66 87 
66 90 
66 92 
66 93 
66 95 
66 98 
66 99 
66 101 
66 104 
66 106 
66 107 
66 109 
66 112 
66 114 
66 115 
66 117 
66 119 
66 121 
66 124 
66 126 
66 128 
66 129 
66 132 
66 134 
66 136 
66 138 
66 140 
66 141 
66 144 
66 145 
66 148 
66 149 
66 151 
66 154 
66 155 
66 157 
66 159 
67 68 
67 82 
67 84 
67 85 
67 88 
67 89 
67 92 
67 93 
67 96 
67 97 
67 99 
67 102 
67 104 
67 105 
67 108 
67 109 
67 112 
67 114 
67 115 
67 118 
67 119 
67 121 
67 124 
67 125 
67 127 
67 130 
67 131 
67 134 
67 136 
67 137 
67 140 
67 141 
67 143 
67 146 
67 147 
67 149 
67 152 
67 153 
67 156 
67 158 
67 159 
68 81 
68 83 
68 86 
68 87 
68 90 
68 91 
68 94 
68 95 
68 98 
68 100 
68 101 
68 103 
68 106 
68 107 
68 110 
68 111 
68 113 
68 116 
68 117 
68 120 
68 122 
68 123 
68 126 
68 128 
68 129 
68 132 
68 133 
68 135 
68 138 
68 139 
68 142 
68 144 
68 145 
68 148 
68 150 
68 151 
68 154 
68 155 
68 157 
68 160 
69 70 
69 82 
69 83 
69 85 
69 87 
69 89 
69 91 
69 94 
69 95 
69 98 
69 100 
69 101 
69 104 
69 106 
69 108 
69 109 
69 111 
69 114 
69 116 
69 118 
69 119 
69 121 
69 124 
69 125 
69 127 
69 129 
69 132 
69 133 
69 136 
69 138 
69 139 
69 142 
69 143 
69 146 
69 147 
69 150 
69 152 
69 154 
69 155 
69 158 
69 159 
70 81 
70 84 
70 86 
70 88 
70 90 
70 92 
70 93 
70 96 
70 97 
70 99 
70 102 
70 103 
70 105 
70 107 
70 110 
70 112 
70 113 
70 115 
70 117 
70 120 
70 122 
70 123 
70 126 
70 128 
70 130 
70 131 
70 134 
70 135 
70 137 
70 140 
70 141 
70 144 
70 145 
70 148 
70 149 
70 151 
70 153 
70 156 
70 157 
70 160 
71 72 
71 82 
71 84 
71 85 
71 88 
71 90 
71 91 
71 94 
71 96 
71 98 
71 99 
71 101 
71 103 
71 105 
71 107 
71 109 
71 112 
71 113 
71 116 
71 118 
71 120 
71 121 
71 124 
71 126 
71 128 
71 130 
71 132 
71 133 
71 135 
71 137 
71 139 
71 142 
71 143 
71 146 
71 147 
71 149 
71 151 
71 154 
71 156 
71 157 
71 159 
72 81 
72 83 
72 86 
72 87 
72 89 
72 92 
72 93 
72 95 
72 97 
72 100 
72 102 
72 104 
72 106 
72 108 
72 110 
72 111 
72 114 
72 115 
72 117 
72 119 
72 122 
72 123 
72 125 
72 127 
72 129 
72 131 
72 134 
72 136 
72 138 
72 140 
72 141 
72 144 
72 145 
72 148 
72 150 
72 152 
72 153 
72 155 
72 158 
72 160 
73 74 
73 82 
73 83 
73 86 
73 88 
73 89 
73 92 
73 94 
73 95 
73 97 
73 100 
73 101 
73 104 
73 105 
73 108 
73 110 
73 111 
73 114 
73 115 
73 118 
73 120 
73 121 
73 124 
73 126 
73 128 
73 130 
73 131 
73 133 
73 135 
73 138 
73 140 
73 142 
73 144 
73 145 
73 147 
73 149 
73 151 
73 153 
73 155 
73 157 
73 159 
74 81 
74 84 
74 85 
74 87 
74 90 
74 91 
74 93 
74 96 
74 98 
74 99 
74 102 
74 103 
74 106 
74 107 
74 109 
74 112 
74 113 
74 116 
74 117 
74 119 
74 122 
74 123 
74 125 
74 127 
74 129 
74 132 
74 134 
74 136 
74 137 
74 139 
74 141 
74 143 
74 146 
74 148 
74 150 
74 152 
74 154 
74 156 
74 158 
74 160 
75 76 
75 82 
75 84 
75 86 
75 87 
75 89 
75 92 
75 94 
75 96 
75 97 
75 99 
75 101 
75 103 
75 106 
75 108 
75 109 
75 112 
75 114 
75 115 
75 117 
75 120 
75 121 
75 123 
75 126 
75 127 
75 130 
75 132 
75 133 
75 135 
75 137 
75 139 
75 141 
75 144 
75 145 
75 147 
75 150 
75 152 
75 154 
75 155 
75 158 
75 160 
76 81 
76 83 
76 85 
76 88 
76 90 
76 91 
76 93 
76 95 
76 98 
76 100 
76 102 
76 104 
76 105 
76 107 
76 110 
76 111 
76 113 
76 116 
76 118 
76 119 
76 122 
76 124 
76 125 
76 128 
76 129 
76 131 
76 134 
76 136 
76 138 
76 140 
76 142 
76 143 
76 146 
76 148 
76 149 
76 151 
76 153 
76 156 
76 157 
76 159 
77 78 
77 82 
77 84 
77 86 
77 87 
77 90 
77 92 
77 94 
77 96 
77 98 
77 99 
77 101 
77 103 
77 106 
77 108 
77 110 
77 111 
77 113 
77 115 
77 118 
77 119 
77 121 
77 123 
77 125 
77 128 
77 129 
77 131 
77 133 
77 136 
77 137 
77 140 
77 142 
77 143 
77 145 
77 148 
77 150 
77 152 
77 153 
77 156 
77 157 
77 159 
78 81 
78 83 
78 85 
78 88 
78 89 
78 91 
78 93 
78 95 
78 97 
78 100 
78 102 
78 104 
78 105 
78 107 
78 109 
78 112 
78 114 
78 116 
78 117 
78 120 
78 122 
78 124 
78 126 
78 127 
78 130 
78 132 
78 134 
78 135 
78 138 
78 139 
78 141 
78 144 
78 146 
78 147 
78 149 
78 151 
78 154 
78 155 
78 158 
78 160 
79 80 
79 82 
79 84 
79 85 
79 88 
79 90 
79 91 
79 94 
79 95 
79 97 
79 99 
79 101 
79 103 
79 105 
79 107 
79 109 
79 112 
79 114 
79 116 
79 118 
79 120 
79 122 
79 123 
79 125 
79 127 
79 129 
79 131 
79 134 
79 135 
79 138 
79 140 
79 142 
79 144 
79 145 
79 148 
79 150 
79 152 
79 153 
79 155 
79 158 
79 159 
80 81 
80 83 
80 86 
80 87 
80 89 
80 92 
80 93 
80 96 
80 98 
80 100 
80 102 
80 104 
80 106 
80 108 
80 110 
80 111 
80 113 
80 115 
80 117 
80 119 
80 121 
80 124 
80 126 
80 128 
80 130 
80 132 
80 133 
80 136 
80 137 
80 139 
80 141 
80 143 
80 146 
80 147 
80 149 
80 151 
80 154 
80 156 
80 157 
80 160 
81 82 
83 84 
85 86 
87 88 
89 90 
91 92 
93 94 
95 96 
97 98 
99 100 
101 102 
103 104 
105 106 
107 108 
109 110 
111 112 
113 114 
115 116 
117 118 
119 120 
121 122 
123 124 
125 126 
127 128 
129 130 
131 132 
133 134 
135 136 
137 138 
139 140 
141 142 
143 144 
145 146 
147 148 
149 150 
151 152 
153 154 
155 156 
157 158 
159 160 
